n = 123;
rows = 284;
supports = [|
  {1},2..21,
 |{1},104..123,
 |{2},{1},
 |{2},3..22,
 |{2},105..123,
 |{3},1..2,
 |{3},4..23,
 |{3},106..123,
 |{4},1..3,
 |{4},5..24,
 |{4},107..123,
 |{5},1..4,
 |{5},6..25,
 |{5},108..123,
 |{6},1..5,
 |{6},7..26,
 |{6},109..123,
 |{7},1..6,
 |{7},8..27,
 |{7},110..123,
 |{8},1..7,
 |{8},9..28,
 |{8},111..123,
 |{9},1..8,
 |{9},10..29,
 |{9},112..123,
 |{10},1..9,
 |{10},11..30,
 |{10},113..123,
 |{11},1..10,
 |{11},12..31,
 |{11},114..123,
 |{12},1..11,
 |{12},13..32,
 |{12},115..123,
 |{13},1..12,
 |{13},14..33,
 |{13},116..123,
 |{14},1..13,
 |{14},15..34,
 |{14},117..123,
 |{15},1..14,
 |{15},16..35,
 |{15},118..123,
 |{16},1..15,
 |{16},17..36,
 |{16},119..123,
 |{17},1..16,
 |{17},18..37,
 |{17},120..123,
 |{18},1..17,
 |{18},19..38,
 |{18},121..123,
 |{19},1..18,
 |{19},20..39,
 |{19},122..123,
 |{20},1..19,
 |{20},21..40,
 |{20},{123},
 |{21},1..20,
 |{21},22..41,
 |{22},2..21,
 |{22},23..42,
 |{23},3..22,
 |{23},24..43,
 |{24},4..23,
 |{24},25..44,
 |{25},5..24,
 |{25},26..45,
 |{26},6..25,
 |{26},27..46,
 |{27},7..26,
 |{27},28..47,
 |{28},8..27,
 |{28},29..48,
 |{29},9..28,
 |{29},30..49,
 |{30},10..29,
 |{30},31..50,
 |{31},11..30,
 |{31},32..51,
 |{32},12..31,
 |{32},33..52,
 |{33},13..32,
 |{33},34..53,
 |{34},14..33,
 |{34},35..54,
 |{35},15..34,
 |{35},36..55,
 |{36},16..35,
 |{36},37..56,
 |{37},17..36,
 |{37},38..57,
 |{38},18..37,
 |{38},39..58,
 |{39},19..38,
 |{39},40..59,
 |{40},20..39,
 |{40},41..60,
 |{41},21..40,
 |{41},42..61,
 |{42},22..41,
 |{42},43..62,
 |{43},23..42,
 |{43},44..63,
 |{44},24..43,
 |{44},45..64,
 |{45},25..44,
 |{45},46..65,
 |{46},26..45,
 |{46},47..66,
 |{47},27..46,
 |{47},48..67,
 |{48},28..47,
 |{48},49..68,
 |{49},29..48,
 |{49},50..69,
 |{50},30..49,
 |{50},51..70,
 |{51},31..50,
 |{51},52..71,
 |{52},32..51,
 |{52},53..72,
 |{53},33..52,
 |{53},54..73,
 |{54},34..53,
 |{54},55..74,
 |{55},35..54,
 |{55},56..75,
 |{56},36..55,
 |{56},57..76,
 |{57},37..56,
 |{57},58..77,
 |{58},38..57,
 |{58},59..78,
 |{59},39..58,
 |{59},60..79,
 |{60},40..59,
 |{60},61..80,
 |{61},41..60,
 |{61},62..81,
 |{62},42..61,
 |{62},63..82,
 |{63},43..62,
 |{63},64..83,
 |{64},44..63,
 |{64},65..84,
 |{65},45..64,
 |{65},66..85,
 |{66},46..65,
 |{66},67..86,
 |{67},47..66,
 |{67},68..87,
 |{68},48..67,
 |{68},69..88,
 |{69},49..68,
 |{69},70..89,
 |{70},50..69,
 |{70},71..90,
 |{71},51..70,
 |{71},72..91,
 |{72},52..71,
 |{72},73..92,
 |{73},53..72,
 |{73},74..93,
 |{74},54..73,
 |{74},75..94,
 |{75},55..74,
 |{75},76..95,
 |{76},56..75,
 |{76},77..96,
 |{77},57..76,
 |{77},78..97,
 |{78},58..77,
 |{78},79..98,
 |{79},59..78,
 |{79},80..99,
 |{80},60..79,
 |{80},81..100,
 |{81},61..80,
 |{81},82..101,
 |{82},62..81,
 |{82},83..102,
 |{83},63..82,
 |{83},84..103,
 |{84},64..83,
 |{84},85..104,
 |{85},65..84,
 |{85},86..105,
 |{86},66..85,
 |{86},87..106,
 |{87},67..86,
 |{87},88..107,
 |{88},68..87,
 |{88},89..108,
 |{89},69..88,
 |{89},90..109,
 |{90},70..89,
 |{90},91..110,
 |{91},71..90,
 |{91},92..111,
 |{92},72..91,
 |{92},93..112,
 |{93},73..92,
 |{93},94..113,
 |{94},74..93,
 |{94},95..114,
 |{95},75..94,
 |{95},96..115,
 |{96},76..95,
 |{96},97..116,
 |{97},77..96,
 |{97},98..117,
 |{98},78..97,
 |{98},99..118,
 |{99},79..98,
 |{99},100..119,
 |{100},80..99,
 |{100},101..120,
 |{101},81..100,
 |{101},102..121,
 |{102},82..101,
 |{102},103..122,
 |{103},83..102,
 |{103},104..123,
 |{104},84..103,
 |{104},105..123,
 |{104},{1},
 |{105},85..104,
 |{105},106..123,
 |{105},1..2,
 |{106},86..105,
 |{106},107..123,
 |{106},1..3,
 |{107},87..106,
 |{107},108..123,
 |{107},1..4,
 |{108},88..107,
 |{108},109..123,
 |{108},1..5,
 |{109},89..108,
 |{109},110..123,
 |{109},1..6,
 |{110},90..109,
 |{110},111..123,
 |{110},1..7,
 |{111},91..110,
 |{111},112..123,
 |{111},1..8,
 |{112},92..111,
 |{112},113..123,
 |{112},1..9,
 |{113},93..112,
 |{113},114..123,
 |{113},1..10,
 |{114},94..113,
 |{114},115..123,
 |{114},1..11,
 |{115},95..114,
 |{115},116..123,
 |{115},1..12,
 |{116},96..115,
 |{116},117..123,
 |{116},1..13,
 |{117},97..116,
 |{117},118..123,
 |{117},1..14,
 |{118},98..117,
 |{118},119..123,
 |{118},1..15,
 |{119},99..118,
 |{119},120..123,
 |{119},1..16,
 |{120},100..119,
 |{120},121..123,
 |{120},1..17,
 |{121},101..120,
 |{121},122..123,
 |{121},1..18,
 |{122},102..121,
 |{122},{123},
 |{122},1..19,
 |{123},103..122,
 |{123},1..20 |];

t = 275;

indexes = [|
    0,42,
  | 0,112,
  | 1,10,
  | 1,37,
  | 1,87,
  | 1,91,
  | 1,117,
  | 2,19,
  | 3,9,
  | 3,15,
  | 4,14,
  | 4,18,
  | 4,21,
  | 4,32,
  | 4,34,
  | 4,64,
  | 4,82,
  | 4,84,
  | 4,85,
  | 4,88,
  | 5,40,
  | 5,58,
  | 5,60,
  | 5,110,
  | 6,58,
  | 6,99,
  | 7,26,
  | 7,29,
  | 7,43,
  | 7,118,
  | 8,52,
  | 8,64,
  | 8,70,
  | 8,96,
  | 10,15,
  | 10,22,
  | 10,30,
  | 10,33,
  | 10,50,
  | 10,57,
  | 10,66,
  | 10,72,
  | 10,80,
  | 10,109,
  | 10,112,
  | 11,18,
  | 11,19,
  | 11,49,
  | 11,85,
  | 12,18,
  | 12,28,
  | 12,44,
  | 12,76,
  | 12,81,
  | 13,17,
  | 13,47,
  | 13,68,
  | 13,82,
  | 14,18,
  | 14,20,
  | 14,21,
  | 14,64,
  | 14,68,
  | 14,76,
  | 14,82,
  | 14,84,
  | 14,96,
  | 14,103,
  | 14,114,
  | 15,22,
  | 15,30,
  | 15,50,
  | 15,63,
  | 15,80,
  | 15,94,
  | 15,97,
  | 15,112,
  | 16,70,
  | 17,18,
  | 17,19,
  | 17,28,
  | 17,36,
  | 17,40,
  | 17,47,
  | 17,68,
  | 17,74,
  | 17,82,
  | 17,98,
  | 17,110,
  | 18,19,
  | 18,34,
  | 18,49,
  | 18,82,
  | 18,84,
  | 18,85,
  | 18,108,
  | 19,36,
  | 19,49,
  | 19,74,
  | 19,82,
  | 19,85,
  | 19,110,
  | 20,64,
  | 20,96,
  | 20,114,
  | 21,32,
  | 21,52,
  | 21,64,
  | 22,30,
  | 22,31,
  | 22,33,
  | 22,38,
  | 22,62,
  | 22,66,
  | 22,80,
  | 22,105,
  | 23,37,
  | 24,52,
  | 24,64,
  | 25,69,
  | 25,85,
  | 26,42,
  | 26,109,
  | 26,112,
  | 26,118,
  | 27,115,
  | 28,102,
  | 28,106,
  | 28,120,
  | 29,118,
  | 30,80,
  | 32,34,
  | 32,88,
  | 33,37,
  | 33,38,
  | 33,62,
  | 33,66,
  | 33,68,
  | 33,95,
  | 33,96,
  | 33,105,
  | 33,114,
  | 33,122,
  | 34,69,
  | 34,85,
  | 35,57,
  | 35,89,
  | 35,90,
  | 35,107,
  | 35,109,
  | 36,74,
  | 36,110,
  | 37,53,
  | 37,120,
  | 38,62,
  | 38,70,
  | 38,71,
  | 38,75,
  | 38,83,
  | 38,96,
  | 38,105,
  | 38,114,
  | 39,106,
  | 40,43,
  | 40,47,
  | 40,54,
  | 40,58,
  | 40,60,
  | 40,89,
  | 40,106,
  | 40,109,
  | 40,110,
  | 40,118,
  | 41,110,
  | 42,50,
  | 42,112,
  | 43,58,
  | 43,92,
  | 43,118,
  | 45,70,
  | 46,55,
  | 46,70,
  | 47,54,
  | 47,66,
  | 47,68,
  | 47,82,
  | 47,109,
  | 47,110,
  | 47,118,
  | 48,69,
  | 48,85,
  | 49,85,
  | 50,63,
  | 50,112,
  | 51,98,
  | 52,64,
  | 53,76,
  | 53,86,
  | 53,96,
  | 53,119,
  | 54,109,
  | 54,118,
  | 56,91,
  | 57,77,
  | 57,93,
  | 57,95,
  | 58,60,
  | 58,73,
  | 58,92,
  | 58,110,
  | 58,111,
  | 58,118,
  | 59,108,
  | 60,110,
  | 61,95,
  | 61,96,
  | 61,103,
  | 61,104,
  | 61,113,
  | 62,105,
  | 63,94,
  | 63,97,
  | 64,70,
  | 64,96,
  | 64,114,
  | 65,70,
  | 66,68,
  | 66,72,
  | 66,109,
  | 66,112,
  | 66,114,
  | 66,122,
  | 67,76,
  | 68,82,
  | 68,90,
  | 68,109,
  | 68,114,
  | 68,120,
  | 68,122,
  | 69,85,
  | 70,75,
  | 70,83,
  | 70,96,
  | 72,109,
  | 72,112,
  | 73,92,
  | 74,110,
  | 75,83,
  | 75,96,
  | 76,120,
  | 78,106,
  | 79,108,
  | 82,84,
  | 82,114,
  | 83,96,
  | 85,115,
  | 89,98,
  | 89,101,
  | 89,116,
  | 90,95,
  | 90,98,
  | 90,103,
  | 91,106,
  | 91,109,
  | 91,120,
  | 92,111,
  | 95,121,
  | 96,114,
  | 98,108,
  | 100,103,
  | 103,108,
  | 109,112,
  | 109,118,
  | 112,118,
  | 114,122 |];

